#model=uma
#md(ensemble=nvt, timestep=0.1, steps=1000, temperature=300,tau_t=20)
#device=gpu

3 1
Al     -1.78069721      1.70138697     -0.03325809
O      -0.28587766      1.27093748     -1.17788237
H      -0.26677498      1.50103175     -2.11723846
O      -2.13043266      3.28728073     -1.10508805
H      -1.72702489      4.15902770     -1.00572626
O      -2.98941836      0.73579547     -1.16144523
H      -2.79445507      0.21943697     -1.95543771
O      -1.56822400      0.09213016      1.06158027
H      -0.90586242     -0.05709414      1.78617691
O      -3.26526663      2.16986158      1.15017108
H      -3.81967277      2.95252688      1.02140208
O      -0.54810927      2.62707614      1.06883683
H      -0.67945960      3.04194320      1.92788009
H      -2.81655856      3.35039975     -1.78451730
H      -3.66389052      1.64076216      1.83778467
H      -3.95380590      0.64433967     -1.00820170
H      -1.88425817     -0.79861642      0.83567559
H       0.68814075      1.41163015     -0.92733539
H       0.39577296      2.76530971      0.83996970
N       2.51577890      2.40131105     -0.88971928
H       2.66258959      2.81916706     -1.79551050
H       2.99332720      3.01973761     -0.23713486
H       3.13340199      1.58320286     -0.88282066
