#model=uma
#opt
#device=gpu

3 1
Al        -1.80031        1.73675       -0.02799
O         -0.36296        1.25330       -1.12518
H         -0.09516        2.04298       -1.66107
O         -2.07378        3.25558       -1.08603
H         -1.86942        4.06950       -0.55936
O         -2.94353        0.78819       -1.17712
H         -2.48369       -0.03667       -1.47788
O         -1.54359        0.20530        1.03339
H         -0.58620       -0.04790        1.05135
O         -3.22136        2.21361        1.09669
H         -3.73648        2.98124        0.74468
O         -0.66721        2.70848        1.09521
H         -0.13847        2.09749        1.66446
H         -3.03529        3.32989       -1.30921
H         -3.87096        1.47382        1.18317
H         -3.75584        0.47016       -0.71457
H         -1.99639       -0.57843        0.63826
H          0.43144        1.06933       -0.56413
H          0.00638        3.17380        0.53571
N          1.59194        2.74594       -0.87552
H          2.63601        2.72851       -0.85209
H          1.25655        3.12060        0.03987
H          1.25628        1.76067       -0.96139